data;


param FN:= 0;
param D:= 100;
param U_Original:=
         1         1       -6.222997e-01
         2         1        4.611645e-01
         3         1       -1.095338e+00
         4         1       -1.229915e+00
         5         1       -3.624858e-01
         6         1       -1.127726e+00
         7         1       -1.871508e+00
         8         1        1.262295e+00
         9         1       -1.694620e+00
        10         1       -1.481563e+00
        11         1       -3.674504e-01
        12         1       -1.095476e-01
        13         1       -2.593917e-01
        14         1        5.807785e-01
        15         1       -1.980451e+00
        16         1        1.025869e+00
        17         1        1.354703e-02
        18         1       -1.347097e+00
        19         1       -9.084241e-01
        20         1        3.677865e-01
        21         1       -2.717198e-01
        22         1        4.631737e-01
        23         1        8.845181e-01
        24         1        6.602318e-01
        25         1        1.612957e+00
        26         1        1.439789e+00
        27         1       -7.906244e-01
        28         1       -8.139751e-01
        29         1       -3.402641e-01
        30         1        1.914726e-01
        31         1        2.033777e-02
        32         1       -8.580444e-01
        33         1       -1.809833e+00
        34         1       -5.119394e-01
        35         1       -1.989218e+00
        36         1       -5.097825e-02
        37         1        4.931132e-02
        38         1       -2.761000e-01
        39         1       -2.113574e+00
        40         1        4.721858e-02
        41         1       -2.630018e-01
        42         1        8.283886e-01
        43         1        8.444134e-01
        44         1       -5.171171e-01
        45         1       -2.492895e-02
        46         1        6.959560e-01
        47         1        4.108106e-01
        48         1       -8.561803e-01
        49         1        8.392118e-01
        50         1        2.338584e+00
        51         1       -2.612510e+00
        52         1       -4.272717e-01
        53         1        7.107655e-01
        54         1        2.392054e+00
        55         1        2.299093e+00
        56         1       -1.085172e-01
        57         1       -1.184039e+00
        58         1       -1.297411e+00
        59         1        9.715506e-01
        60         1       -1.020099e+00
        61         1       -1.055688e+00
        62         1        1.362917e-01
        63         1        1.227433e+00
        64         1        1.733694e+00
        65         1       -2.277741e-02
        66         1       -2.834269e+00
        67         1       -3.300863e-01
        68         1        1.237429e-01
        69         1       -4.251944e-02
        70         1        2.466231e+00
        71         1        3.456609e-01
        72         1        1.662266e-01
        73         1        1.362430e+00
        74         1        1.201884e+00
        75         1       -6.780639e-01
        76         1        1.066773e-01
        77         1        9.353492e-01
        78         1       -1.467278e-01
        79         1        2.307177e+00
        80         1       -4.577193e-01
        81         1        1.064132e+00
        82         1        3.751161e-01
        83         1       -3.067581e-01
        84         1       -1.076653e+00
        85         1       -1.117306e+00
        86         1       -9.330702e-01
        87         1        1.378029e+00
        88         1        1.059635e+00
        89         1        1.731654e+00
        90         1       -9.525912e-01
        91         1       -2.786606e-01
        92         1       -1.587630e-01
        93         1       -1.579707e-01
        94         1       -8.936742e-02
        95         1        4.829687e-01
        96         1        2.088955e-01
        97         1       -2.384966e-01
        98         1        2.110891e-01
        99         1       -1.273761e+00
       100         1        7.196521e-02
         1         2        5.863048e-01
         2         2        2.224007e-01
         3         2        1.306763e+00
         4         2       -2.521296e-01
         5         2       -1.130861e+00
         6         2       -3.980754e-01
         7         2       -2.138820e-01
         8         2        2.029250e+00
         9         2       -5.670568e-01
        10         2        1.133743e-01
        11         2        7.559937e-02
        12         2        9.647634e-01
        13         2        5.740397e-01
        14         2       -1.213640e+00
        15         2       -2.031540e+00
        16         2        1.319959e+00
        17         2        2.490384e-01
        18         2       -5.104917e-01
        19         2       -7.531716e-01
        20         2        8.733830e-01
        21         2       -9.237029e-01
        22         2       -1.117454e+00
        23         2        7.967956e-01
        24         2       -5.944196e-01
        25         2       -1.955318e-01
        26         2       -9.488319e-01
        27         2        2.166027e+00
        28         2        4.052105e-01
        29         2        1.673046e+00
        30         2        7.962178e-01
        31         2       -1.429747e-01
        32         2        1.649094e+00
        33         2        9.313704e-01
        34         2       -4.125038e-01
        35         2       -1.673145e+00
        36         2       -3.814155e-01
        37         2       -2.446620e-01
        38         2        9.221318e-01
        39         2       -5.110421e-01
        40         2       -1.435982e-01
        41         2       -1.038253e+00
        42         2       -1.039142e+00
        43         2        9.142952e-01
        44         2       -1.214597e+00
        45         2        1.098924e+00
        46         2        1.641189e-01
        47         2        1.328582e+00
        48         2       -1.015652e-01
        49         2        9.519865e-01
        50         2        1.059898e-01
        51         2       -1.230697e+00
        52         2       -7.845773e-01
        53         2       -1.238542e-01
        54         2        1.202059e+00
        55         2       -3.033086e-01
        56         2        7.549274e-01
        57         2        9.611199e-01
        58         2        2.652543e+00
        59         2        1.614742e-01
        60         2       -1.324585e+00
        61         2       -3.446171e-01
        62         2       -4.213496e-02
        63         2        6.177087e-02
        64         2        1.117905e+00
        65         2       -1.550573e+00
        66         2       -6.493125e-01
        67         2        1.150272e+00
        68         2        3.463861e-01
        69         2       -6.574536e-01
        70         2       -8.344354e-01
        71         2       -7.057783e-01
        72         2       -1.216617e-01
        73         2       -9.968076e-01
        74         2       -3.802020e-01
        75         2        2.880151e-01
        76         2       -1.980435e-01
        77         2       -1.244746e+00
        78         2        4.500748e-01
        79         2        5.671467e-01
        80         2        4.702585e-01
        81         2       -5.144311e-01
        82         2       -3.767031e-01
        83         2       -8.102417e-01
        84         2        5.365661e-01
        85         2        5.234305e-01
        86         2        4.277290e-01
        87         2        2.728711e-01
        88         2        1.577681e+00
        89         2       -7.983078e-01
        90         2       -1.003365e-01
        91         2       -3.032707e-01
        92         2        8.516543e-01
        93         2        3.787001e-01
        94         2       -7.153585e-01
        95         2       -9.287644e-01
        96         2       -4.965875e-01
        97         2       -1.249882e+00
        98         2        3.537397e-01
        99         2        7.801778e-02
       100         2       -5.867372e-01
         1         3       -1.839040e+00
         2         3        1.994879e+00
         3         3        5.052167e-01
         4         3        3.500272e-01
         5         3        9.047183e-01
         6         3        7.112979e-01
         7         3        3.382429e-01
         8         3        1.965266e-01
         9         3       -1.401239e+00
        10         3       -1.434841e+00
        11         3        6.534203e-01
        12         3        2.850362e-01
        13         3        1.078880e+00
        14         3        9.414608e-02
        15         3        5.041701e-01
        16         3        8.467824e-01
        17         3       -2.620061e-03
        18         3        8.087378e-01
        19         3        4.808719e-01
        20         3        2.091015e-01
        21         3       -9.226058e-03
        22         3        7.834267e-01
        23         3       -1.241698e+00
        24         3       -5.778776e-01
        25         3       -4.690350e-01
        26         3       -1.167652e+00
        27         3        9.597390e-01
        28         3        1.043863e+00
        29         3       -1.532641e+00
        30         3        1.886249e+00
        31         3       -3.490088e-01
        32         3       -3.399665e-01
        33         3       -1.141151e+00
        34         3       -2.163884e-01
        35         3       -7.428145e-01
        36         3        5.868078e-02
        37         3       -8.372488e-01
        38         3        2.434212e-01
        39         3        7.098112e-02
        40         3       -1.902853e-01
        41         3       -2.694527e-01
        42         3       -1.252331e+00
        43         3       -2.508183e-01
        44         3        5.196510e-02
        45         3        6.009299e-01
        46         3        1.907346e+00
        47         3        2.100800e+00
        48         3       -5.755916e-01
        49         3        7.918307e-01
        50         3       -2.746930e-01
        51         3        3.820882e-01
        52         3        2.087653e-01
        53         3        8.208843e-01
        54         3       -1.563384e+00
        55         3        1.184848e-01
        56         3        9.882869e-01
        57         3        6.598566e-01
        58         3       -1.571000e+00
        59         3        2.483060e-01
        60         3       -5.797271e-01
        61         3        6.185818e-02
        62         3       -5.482227e-01
        63         3        2.678336e-01
        64         3        1.183840e+00
        65         3       -2.414230e-01
        66         3        1.695478e+00
        67         3       -1.855178e+00
        68         3       -3.767541e-01
        69         3       -3.788715e-01
        70         3        5.748912e-01
        71         3        7.201530e-01
        72         3       -6.467740e-01
        73         3       -1.781603e+00
        74         3        3.075353e-01
        75         3       -9.170169e-02
        76         3       -5.129687e-01
        77         3       -1.704096e+00
        78         3        1.774971e+00
        79         3       -1.669568e+00
        80         3       -8.579463e-01
        81         3        6.002136e-01
        82         3       -3.608414e-01
        83         3       -2.236593e-01
        84         3       -9.101940e-01
        85         3        4.226017e-01
        86         3       -1.125425e+00
        87         3        1.255669e-01
        88         3        3.566453e-01
        89         3       -2.231799e+00
        90         3        6.029547e-01
        91         3        8.845477e-01
        92         3        1.088376e+00
        93         3        3.525619e-01
        94         3       -2.173082e-03
        95         3        1.172640e+00
        96         3        5.588405e-01
        97         3       -2.453345e-02
        98         3       -3.707583e-01
        99         3       -4.773535e-01
       100         3       -1.486372e+00
         1         4       -1.572816e-01
         2         4        1.235837e+00
         3         4       -1.351889e+00
         4         4        4.860985e-01
         5         4        1.585432e+00
         6         4        2.632818e-01
         7         4       -4.109210e-01
         8         4        5.215574e-01
         9         4       -1.614506e+00
        10         4       -2.961436e-01
        11         4       -1.444073e-01
        12         4       -6.075163e-01
        13         4        4.179578e-01
        14         4        2.760779e+00
        15         4       -6.145599e-01
        16         4        5.185938e-01
        17         4       -5.277788e-01
        18         4        1.404845e+00
        19         4        1.460479e+00
        20         4       -2.285580e+00
        21         4       -6.848416e-01
        22         4        6.063950e-01
        23         4       -2.445536e-01
        24         4       -3.057477e-01
        25         4        3.619549e-01
        26         4        3.000529e-01
        27         4       -6.766612e-01
        28         4       -8.728433e-01
        29         4       -5.130381e-01
        30         4        6.173106e-01
        31         4        9.359516e-02
        32         4        1.163793e+00
        33         4        1.172241e+00
        34         4       -1.202611e+00
        35         4       -9.207836e-01
        36         4        4.489291e-02
        37         4       -7.938833e-01
        38         4        9.082123e-01
        39         4       -1.177969e-01
        40         4        4.777994e-01
        41         4       -1.005649e+00
        42         4        1.467103e-01
        43         4       -1.083620e+00
        44         4       -1.841761e+00
        45         4       -6.963968e-01
        46         4       -7.733748e-02
        47         4       -9.584622e-01
        48         4        9.488723e-02
        49         4       -1.041184e+00
        50         4       -1.214561e+00
        51         4        5.066780e-01
        52         4        1.193687e+00
        53         4       -3.006425e-01
        54         4        1.221750e-01
        55         4        2.758549e-01
        56         4        2.600660e-02
        57         4        2.244264e+00
        58         4        1.383858e+00
        59         4       -5.245950e-01
        60         4        8.035846e-02
        61         4        1.253350e-01
        62         4       -8.973039e-01
        63         4        4.729813e-01
        64         4        9.419879e-01
        65         4       -3.696428e-01
        66         4        6.698186e-01
        67         4        1.104344e+00
        68         4       -8.800226e-01
        69         4       -2.125861e+00
        70         4       -2.025689e+00
        71         4       -1.631078e+00
        72         4       -9.456955e-02
        73         4       -3.313806e+00
        74         4       -1.202644e+00
        75         4        1.578836e+00
        76         4        4.724610e-01
        77         4       -1.519400e-01
        78         4        9.980625e-01
        79         4       -2.468798e+00
        80         4       -3.501638e-01
        81         4        7.780158e-01
        82         4       -1.405884e+00
        83         4        7.205360e-01
        84         4        9.826376e-01
        85         4        3.569099e-01
        86         4        1.728865e-01
        87         4        1.664478e+00
        88         4        1.613772e-01
        89         4       -1.085934e+00
        90         4       -3.620964e-01
        91         4       -1.654203e+00
        92         4        1.593095e+00
        93         4       -9.252623e-01
        94         4       -5.651454e-01
        95         4       -2.171391e+00
        96         4       -8.502058e-01
        97         4        4.913750e-01
        98         4        1.544603e+00
        99         4        1.490401e+00
       100         4       -2.105059e+00
         1         5        1.815673e-01
         2         5       -1.022507e+00
         3         5        1.051145e+00
         4         5       -2.233052e-01
         5         5        1.271072e+00
         6         5        2.164143e+00
         7         5        2.524904e-01
         8         5        1.204900e-01
         9         5        1.674801e+00
        10         5       -8.530591e-01
        11         5        5.885551e-01
        12         5       -9.742325e-01
        13         5        6.847020e-01
        14         5        1.909011e-01
        15         5       -1.564919e+00
        16         5       -3.780383e-01
        17         5       -9.734376e-02
        18         5       -7.068011e-01
        19         5        1.591010e+00
        20         5        1.513696e+00
        21         5        5.478824e-01
        22         5       -2.785030e-01
        23         5       -1.201303e+00
        24         5        7.554062e-01
        25         5        3.432978e-01
        26         5        1.016171e+00
        27         5       -2.577495e+00
        28         5       -4.349030e-02
        29         5        5.014400e-01
        30         5       -4.811993e-01
        31         5        1.543169e+00
        32         5       -7.998846e-01
        33         5       -8.633259e-01
        34         5       -6.353104e-01
        35         5       -1.329800e+00
        36         5       -1.676561e+00
        37         5        1.034053e-01
        38         5       -1.813855e+00
        39         5       -1.999872e-01
        40         5        5.162294e-01
        41         5        1.199936e+00
        42         5        1.803235e-02
        43         5       -9.258311e-01
        44         5        1.336716e+00
        45         5       -1.363787e+00
        46         5        8.216051e-01
        47         5        1.891730e+00
        48         5        8.340181e-01
        49         5       -6.592162e-01
        50         5       -7.460012e-01
        51         5        7.160323e-01
        52         5       -3.371661e-01
        53         5       -1.223592e+00
        54         5       -9.543729e-01
        55         5       -6.115811e-01
        56         5        4.453667e-01
        57         5        7.711132e-01
        58         5       -9.892940e-01
        59         5        1.318922e-01
        60         5       -3.347570e-01
        61         5        1.012547e+00
        62         5       -1.161810e+00
        63         5        8.666347e-01
        64         5       -6.523730e-01
        65         5        1.670977e-01
        66         5        1.842203e+00
        67         5        9.184019e-02
        68         5        8.597850e-01
        69         5        6.254913e-01
        70         5       -7.569857e-03
        71         5       -1.029595e-01
        72         5       -1.407049e+00
        73         5       -9.818501e-01
        74         5        2.267970e-01
        75         5        1.548806e+00
        76         5        1.729446e+00
        77         5        2.051357e-01
        78         5        1.283982e+00
        79         5        8.860909e-01
        80         5        1.060059e-01
        81         5       -5.864895e-01
        82         5       -8.316103e-01
        83         5        2.175795e-01
        84         5       -4.905608e-01
        85         5        1.069308e+00
        86         5       -9.958463e-01
        87         5       -1.364730e+00
        88         5        2.106437e+00
        89         5       -5.409016e-01
        90         5        1.277872e+00
        91         5        1.682316e-01
        92         5        1.132976e+00
        93         5        3.888496e-01
        94         5        1.792687e-01
        95         5        1.438931e+00
        96         5       -1.482718e+00
        97         5        2.814281e-01
        98         5        2.098085e-01
        99         5       -1.434426e+00
       100         5        7.942557e-01
;
param X_Original:=
    1        2.694106e+00
    2       -3.016018e+00
    3       -4.041464e-01
    4       -1.477408e+00
    5        1.220798e-01
    6       -1.250871e+00
    7       -7.685688e-01
    8       -1.972530e+00
    9       -9.626466e-01
   10       -3.983193e-01
   11        6.218230e-01
   12       -5.702015e-01
   13        4.873561e-01
   14       -4.371615e-01
   15        3.635989e-01
   16       -1.436088e+00
   17        2.810570e-02
   18        2.736840e-04
   19        7.818261e-01
   20        5.076647e-01
   21       -3.179811e-01
   22       -3.773584e-01
   23        8.097995e-01
   24        1.590758e+00
   25       -1.366655e+00
   26       -5.095999e-01
   27        1.949680e-01
   28        9.628051e-01
   29       -2.139754e+00
   30        2.769966e-01
   31        2.421300e+00
   32       -1.605442e-02
   33       -2.905941e-01
   34       -1.371459e+00
   35        3.853092e-01
   36       -8.041180e-01
   37        1.296321e+00
   38       -1.088287e+00
   39       -4.224047e-01
   40       -4.349190e-01
   41       -1.169478e-02
   42        2.080303e-01
   43       -5.542871e-01
   44       -1.825507e+00
   45        5.027434e-01
   46       -5.955439e-02
   47        1.998171e+00
   48       -3.031335e+00
   49       -1.559862e+00
   50       -1.126712e+00
   51        2.356157e+00
   52       -7.378607e-02
   53        7.102392e-01
   54        8.141838e-01
   55       -1.155022e+00
   56        8.267678e-01
   57       -1.861620e+00
   58        2.639215e-01
   59       -4.648970e-02
   60        1.820808e+00
   61       -1.051290e+00
   62        1.090458e+00
   63       -2.044702e+00
   64        2.956303e-02
   65       -4.163918e-01
   66        1.774214e+00
   67        2.256969e+00
   68       -9.264448e-01
   69       -1.204386e+00
   70       -1.575952e+00
   71       -8.729611e-01
   72       -1.265514e+00
   73        2.732422e+00
   74        2.830685e-01
   75        1.469048e+00
   76        7.667370e-01
   77       -1.191290e+00
   78       -1.204295e-01
   79        4.614951e-01
   80       -1.414358e-01
   81       -6.084535e-01
   82       -2.679160e-03
   83        5.856113e-01
   84       -1.696113e+00
   85       -6.527867e-01
   86       -6.591217e-01
   87        1.484893e+00
   88        6.318906e-01
   89       -6.121533e-01
   90       -1.170804e+00
   91       -5.030699e-01
   92       -8.254436e-01
   93       -1.324981e-01
   94       -1.387412e+00
   95       -1.580410e+00
   96        5.499357e-01
   97        4.209141e-01
   98        2.050907e-01
   99        5.131488e-01
  100        2.299509e+00
;
param outliervec_original :=
    1    0
    2    0
    3    1
    4    1
    5    1
    6    1
    7    1
    8    1
    9    1
   10    1
   11    1
   12    1
   13    1
   14    0
   15    1
   16    1
   17    1
   18    1
   19    1
   20    1
   21    1
   22    1
   23    1
   24    1
   25    1
   26    1
   27    1
   28    1
   29    1
   30    1
   31    1
   32    1
   33    1
   34    1
   35    1
   36    1
   37    0
   38    1
   39    1
   40    1
   41    1
   42    1
   43    1
   44    1
   45    1
   46    1
   47    1
   48    1
   49    0
   50    1
   51    1
   52    1
   53    1
   54    1
   55    0
   56    1
   57    1
   58    1
   59    1
   60    0
   61    1
   62    0
   63    1
   64    1
   65    1
   66    1
   67    0
   68    1
   69    1
   70    0
   71    1
   72    1
   73    0
   74    1
   75    1
   76    1
   77    1
   78    1
   79    1
   80    1
   81    1
   82    1
   83    0
   84    1
   85    1
   86    1
   87    1
   88    1
   89    1
   90    1
   91    1
   92    1
   93    1
   94    1
   95    1
   96    1
   97    0
   98    1
   99    1
  100    0
;
param d:= 57;
param r:=5;
param p:=0.860000;
param M:=1000;
param U:=
         1         1       -6.222997e-01
         2         1        4.611645e-01
         3         1       -1.095338e+00
         4         1       -3.624858e-01
         5         1        1.262295e+00
         6         1       -3.674504e-01
         7         1       -1.095476e-01
         8         1        5.807785e-01
         9         1       -1.980451e+00
        10         1        1.025869e+00
        11         1        1.354703e-02
        12         1       -1.347097e+00
        13         1       -9.084241e-01
        14         1        3.677865e-01
        15         1        4.631737e-01
        16         1        8.845181e-01
        17         1        6.602318e-01
        18         1        1.612957e+00
        19         1        2.033777e-02
        20         1       -8.580444e-01
        21         1       -5.097825e-02
        22         1        4.931132e-02
        23         1       -2.761000e-01
        24         1        4.721858e-02
        25         1        8.283886e-01
        26         1        8.444134e-01
        27         1        8.392118e-01
        28         1        2.338584e+00
        29         1       -2.612510e+00
        30         1       -4.272717e-01
        31         1        2.299093e+00
        32         1       -1.297411e+00
        33         1        9.715506e-01
        34         1       -1.020099e+00
        35         1        1.362917e-01
        36         1        1.227433e+00
        37         1       -2.834269e+00
        38         1       -3.300863e-01
        39         1        2.466231e+00
        40         1        3.456609e-01
        41         1        1.362430e+00
        42         1        1.201884e+00
        43         1       -6.780639e-01
        44         1        1.066773e-01
        45         1        2.307177e+00
        46         1        1.064132e+00
        47         1        3.751161e-01
        48         1       -3.067581e-01
        49         1       -1.117306e+00
        50         1       -2.786606e-01
        51         1       -1.587630e-01
        52         1       -1.579707e-01
        53         1        4.829687e-01
        54         1       -2.384966e-01
        55         1        2.110891e-01
        56         1       -1.273761e+00
        57         1        7.196521e-02
         1         2        5.863048e-01
         2         2        2.224007e-01
         3         2        1.306763e+00
         4         2       -1.130861e+00
         5         2        2.029250e+00
         6         2        7.559937e-02
         7         2        9.647634e-01
         8         2       -1.213640e+00
         9         2       -2.031540e+00
        10         2        1.319959e+00
        11         2        2.490384e-01
        12         2       -5.104917e-01
        13         2       -7.531716e-01
        14         2        8.733830e-01
        15         2       -1.117454e+00
        16         2        7.967956e-01
        17         2       -5.944196e-01
        18         2       -1.955318e-01
        19         2       -1.429747e-01
        20         2        1.649094e+00
        21         2       -3.814155e-01
        22         2       -2.446620e-01
        23         2        9.221318e-01
        24         2       -1.435982e-01
        25         2       -1.039142e+00
        26         2        9.142952e-01
        27         2        9.519865e-01
        28         2        1.059898e-01
        29         2       -1.230697e+00
        30         2       -7.845773e-01
        31         2       -3.033086e-01
        32         2        2.652543e+00
        33         2        1.614742e-01
        34         2       -1.324585e+00
        35         2       -4.213496e-02
        36         2        6.177087e-02
        37         2       -6.493125e-01
        38         2        1.150272e+00
        39         2       -8.344354e-01
        40         2       -7.057783e-01
        41         2       -9.968076e-01
        42         2       -3.802020e-01
        43         2        2.880151e-01
        44         2       -1.980435e-01
        45         2        5.671467e-01
        46         2       -5.144311e-01
        47         2       -3.767031e-01
        48         2       -8.102417e-01
        49         2        5.234305e-01
        50         2       -3.032707e-01
        51         2        8.516543e-01
        52         2        3.787001e-01
        53         2       -9.287644e-01
        54         2       -1.249882e+00
        55         2        3.537397e-01
        56         2        7.801778e-02
        57         2       -5.867372e-01
         1         3       -1.839040e+00
         2         3        1.994879e+00
         3         3        5.052167e-01
         4         3        9.047183e-01
         5         3        1.965266e-01
         6         3        6.534203e-01
         7         3        2.850362e-01
         8         3        9.414608e-02
         9         3        5.041701e-01
        10         3        8.467824e-01
        11         3       -2.620061e-03
        12         3        8.087378e-01
        13         3        4.808719e-01
        14         3        2.091015e-01
        15         3        7.834267e-01
        16         3       -1.241698e+00
        17         3       -5.778776e-01
        18         3       -4.690350e-01
        19         3       -3.490088e-01
        20         3       -3.399665e-01
        21         3        5.868078e-02
        22         3       -8.372488e-01
        23         3        2.434212e-01
        24         3       -1.902853e-01
        25         3       -1.252331e+00
        26         3       -2.508183e-01
        27         3        7.918307e-01
        28         3       -2.746930e-01
        29         3        3.820882e-01
        30         3        2.087653e-01
        31         3        1.184848e-01
        32         3       -1.571000e+00
        33         3        2.483060e-01
        34         3       -5.797271e-01
        35         3       -5.482227e-01
        36         3        2.678336e-01
        37         3        1.695478e+00
        38         3       -1.855178e+00
        39         3        5.748912e-01
        40         3        7.201530e-01
        41         3       -1.781603e+00
        42         3        3.075353e-01
        43         3       -9.170169e-02
        44         3       -5.129687e-01
        45         3       -1.669568e+00
        46         3        6.002136e-01
        47         3       -3.608414e-01
        48         3       -2.236593e-01
        49         3        4.226017e-01
        50         3        8.845477e-01
        51         3        1.088376e+00
        52         3        3.525619e-01
        53         3        1.172640e+00
        54         3       -2.453345e-02
        55         3       -3.707583e-01
        56         3       -4.773535e-01
        57         3       -1.486372e+00
         1         4       -1.572816e-01
         2         4        1.235837e+00
         3         4       -1.351889e+00
         4         4        1.585432e+00
         5         4        5.215574e-01
         6         4       -1.444073e-01
         7         4       -6.075163e-01
         8         4        2.760779e+00
         9         4       -6.145599e-01
        10         4        5.185938e-01
        11         4       -5.277788e-01
        12         4        1.404845e+00
        13         4        1.460479e+00
        14         4       -2.285580e+00
        15         4        6.063950e-01
        16         4       -2.445536e-01
        17         4       -3.057477e-01
        18         4        3.619549e-01
        19         4        9.359516e-02
        20         4        1.163793e+00
        21         4        4.489291e-02
        22         4       -7.938833e-01
        23         4        9.082123e-01
        24         4        4.777994e-01
        25         4        1.467103e-01
        26         4       -1.083620e+00
        27         4       -1.041184e+00
        28         4       -1.214561e+00
        29         4        5.066780e-01
        30         4        1.193687e+00
        31         4        2.758549e-01
        32         4        1.383858e+00
        33         4       -5.245950e-01
        34         4        8.035846e-02
        35         4       -8.973039e-01
        36         4        4.729813e-01
        37         4        6.698186e-01
        38         4        1.104344e+00
        39         4       -2.025689e+00
        40         4       -1.631078e+00
        41         4       -3.313806e+00
        42         4       -1.202644e+00
        43         4        1.578836e+00
        44         4        4.724610e-01
        45         4       -2.468798e+00
        46         4        7.780158e-01
        47         4       -1.405884e+00
        48         4        7.205360e-01
        49         4        3.569099e-01
        50         4       -1.654203e+00
        51         4        1.593095e+00
        52         4       -9.252623e-01
        53         4       -2.171391e+00
        54         4        4.913750e-01
        55         4        1.544603e+00
        56         4        1.490401e+00
        57         4       -2.105059e+00
         1         5        1.815673e-01
         2         5       -1.022507e+00
         3         5        1.051145e+00
         4         5        1.271072e+00
         5         5        1.204900e-01
         6         5        5.885551e-01
         7         5       -9.742325e-01
         8         5        1.909011e-01
         9         5       -1.564919e+00
        10         5       -3.780383e-01
        11         5       -9.734376e-02
        12         5       -7.068011e-01
        13         5        1.591010e+00
        14         5        1.513696e+00
        15         5       -2.785030e-01
        16         5       -1.201303e+00
        17         5        7.554062e-01
        18         5        3.432978e-01
        19         5        1.543169e+00
        20         5       -7.998846e-01
        21         5       -1.676561e+00
        22         5        1.034053e-01
        23         5       -1.813855e+00
        24         5        5.162294e-01
        25         5        1.803235e-02
        26         5       -9.258311e-01
        27         5       -6.592162e-01
        28         5       -7.460012e-01
        29         5        7.160323e-01
        30         5       -3.371661e-01
        31         5       -6.115811e-01
        32         5       -9.892940e-01
        33         5        1.318922e-01
        34         5       -3.347570e-01
        35         5       -1.161810e+00
        36         5        8.666347e-01
        37         5        1.842203e+00
        38         5        9.184019e-02
        39         5       -7.569857e-03
        40         5       -1.029595e-01
        41         5       -9.818501e-01
        42         5        2.267970e-01
        43         5        1.548806e+00
        44         5        1.729446e+00
        45         5        8.860909e-01
        46         5       -5.864895e-01
        47         5       -8.316103e-01
        48         5        2.175795e-01
        49         5        1.069308e+00
        50         5        1.682316e-01
        51         5        1.132976e+00
        52         5        3.888496e-01
        53         5        1.438931e+00
        54         5        2.814281e-01
        55         5        2.098085e-01
        56         5       -1.434426e+00
        57         5        7.942557e-01
;

param theta:=
    1       -5.184452e-01
    2       -3.107051e-01
    3       -1.401123e+00
    4       -1.219938e-01
    5       -2.327686e-01
;
param X_true:=
    1        2.694106e+00
    2       -3.016018e+00
    3       -6.257677e-01
    4       -1.217607e+00
    5       -1.651960e+00
    6       -8.678889e-01
    7       -3.414495e-01
    8       -4.371615e-01
    9        1.390797e+00
   10       -2.103691e+00
   11        6.314411e-03
   12       -2.829946e-01
   13       -5.172849e-01
   14       -8.285329e-01
   15       -9.997585e-01
   16        1.343089e+00
   17        5.135376e-01
   18       -2.423664e-01
   19        1.522641e-01
   20        4.530143e-01
   21        4.474922e-01
   22        1.296321e+00
   23       -1.730194e-01
   24        1.082992e-01
   25        1.625967e+00
   26       -2.273169e-02
   27       -1.559862e+00
   28       -5.386661e-01
   29        9.729931e-01
   30        1.056425e-01
   31       -1.155022e+00
   32        2.111097e+00
   33       -8.684770e-01
   34        1.820808e+00
   35        1.090458e+00
   36       -1.290243e+00
   37       -1.214937e+00
   38        2.256969e+00
   39       -1.575952e+00
   40       -7.459934e-01
   41        2.732422e+00
   42       -8.419515e-01
   43       -1.625850e-01
   44        2.647612e-01
   45        1.061834e+00
   46       -1.191228e+00
   47        7.932316e-01
   48        5.856113e-01
   49       -4.679299e-01
   50       -8.380190e-01
   51       -2.165321e+00
   52       -5.073833e-01
   53       -1.674875e+00
   54        4.209141e-01
   55        6.286239e-02
   56        1.457035e+00
   57        2.299509e+00
;
param X:=
    1        2.694106e+00
    2       -3.016018e+00
    3       -4.041464e-01
    4        1.220798e-01
    5       -1.972530e+00
    6        6.218230e-01
    7       -5.702015e-01
    8       -4.371615e-01
    9        3.635989e-01
   10       -1.436088e+00
   11        2.810570e-02
   12        2.736840e-04
   13        7.818261e-01
   14        5.076647e-01
   15       -3.773584e-01
   16        8.097995e-01
   17        1.590758e+00
   18       -1.366655e+00
   19        2.421300e+00
   20       -1.605442e-02
   21       -8.041180e-01
   22        1.296321e+00
   23       -1.088287e+00
   24       -4.349190e-01
   25        2.080303e-01
   26       -5.542871e-01
   27       -1.559862e+00
   28       -1.126712e+00
   29        2.356157e+00
   30       -7.378607e-02
   31       -1.155022e+00
   32        2.639215e-01
   33       -4.648970e-02
   34        1.820808e+00
   35        1.090458e+00
   36       -2.044702e+00
   37        1.774214e+00
   38        2.256969e+00
   39       -1.575952e+00
   40       -8.729611e-01
   41        2.732422e+00
   42        2.830685e-01
   43        1.469048e+00
   44        7.667370e-01
   45        4.614951e-01
   46       -6.084535e-01
   47       -2.679160e-03
   48        5.856113e-01
   49       -6.527867e-01
   50       -5.030699e-01
   51       -8.254436e-01
   52       -1.324981e-01
   53       -1.580410e+00
   54        4.209141e-01
   55        2.050907e-01
   56        5.131488e-01
   57        2.299509e+00
;
param outliervec:=
    1    0
    2    0
    3    1
    4    1
    5    1
    6    1
    7    1
    8    0
    9    1
   10    1
   11    1
   12    1
   13    1
   14    1
   15    1
   16    1
   17    1
   18    1
   19    1
   20    1
   21    1
   22    0
   23    1
   24    1
   25    1
   26    1
   27    0
   28    1
   29    1
   30    1
   31    0
   32    1
   33    1
   34    0
   35    0
   36    1
   37    1
   38    0
   39    0
   40    1
   41    0
   42    1
   43    1
   44    1
   45    1
   46    1
   47    1
   48    0
   49    1
   50    1
   51    1
   52    1
   53    1
   54    0
   55    1
   56    1
   57    0
; 
param greedy_time :=         2.041284e-01
;